c Standarized MaxSat Instance
c{
c "sha1sum": "6508289053cdd72bdf6cf130784888f7d3c6f1e5",
c "nvars": 233,
c "ncls": 593,
c "nhards": 0,
c "nhard_len_stats":
c    { "min": 0, "max": 0, "ave": 0.00,
c      "stddev": 0.00 },
c "nsofts": 593,
c "nsoft_len_stats":
c    { "min": 1, "max": 4, "ave": 2.70,
c      "stddev": 0.79 },
c "nsoft_wts": 2,
c "soft_wt_stats":
c    { "min": 1, "max": 51, "ave": 46.78,
c      "stddev": 13.89 }
c}
c------------------------------------------------------------
c This instance encodes a supposedly trivial MaxSAT formula.
c The hard part of the formula encodes a cardinality constraint:
c     x1 + ... + x50 <= 20
c Cardinality encoding used is 'kmtot'.
c The soft part prefers all the variables to be set to true:
c     x1 = 1, ..., x50 = 1
c As a result, the optimum cost for this formula is 30.
c
p wcnf 233 593 27744
1 1 0
1 2 0
1 3 0
1 4 0
1 5 0
1 6 0
1 7 0
1 8 0
1 9 0
1 10 0
1 11 0
1 12 0
1 13 0
1 14 0
1 15 0
1 16 0
1 17 0
1 18 0
1 19 0
1 20 0
1 21 0
1 22 0
1 23 0
1 24 0
1 25 0
1 26 0
1 27 0
1 28 0
1 29 0
1 30 0
1 31 0
1 32 0
1 33 0
1 34 0
1 35 0
1 36 0
1 37 0
1 38 0
1 39 0
1 40 0
1 41 0
1 42 0
1 43 0
1 44 0
1 45 0
1 46 0
1 47 0
1 48 0
1 49 0
1 50 0
51 -72 56 75 0
51 -73 57 75 0
51 -74 58 75 0
51 -64 56 75 0
51 -65 57 75 0
51 -66 58 75 0
51 -64 -72 57 75 0
51 -64 -73 58 75 0
51 -64 -74 75 0
51 -65 -72 58 75 0
51 -65 -73 75 0
51 -65 -74 56 0
51 -66 -72 75 0
51 -66 -73 56 0
51 -66 -74 57 0
51 -75 51 0
51 -67 51 0
51 -75 -67 52 0
51 -68 52 0
51 -75 -68 53 0
51 -69 53 0
51 -75 -69 54 0
51 -70 54 0
51 -75 -70 55 0
51 -71 55 0
51 -75 -71 0
51 -59 51 0
51 -75 -59 52 0
51 -60 52 0
51 -75 -60 53 0
51 -61 53 0
51 -75 -61 54 0
51 -62 54 0
51 -75 -62 55 0
51 -63 55 0
51 -75 -63 0
51 -59 -67 52 0
51 -75 -59 -67 53 0
51 -59 -68 53 0
51 -75 -59 -68 54 0
51 -59 -69 54 0
51 -75 -59 -69 55 0
51 -59 -70 55 0
51 -75 -59 -70 0
51 -59 -71 0
51 -75 -59 -71 0
51 -60 -67 53 0
51 -75 -60 -67 54 0
51 -60 -68 54 0
51 -75 -60 -68 55 0
51 -60 -69 55 0
51 -75 -60 -69 0
51 -60 -70 0
51 -75 -60 -70 0
51 -60 -71 0
51 -75 -60 -71 0
51 -61 -67 54 0
51 -75 -61 -67 55 0
51 -61 -68 55 0
51 -75 -61 -68 0
51 -61 -69 0
51 -75 -61 -69 0
51 -61 -70 0
51 -75 -61 -70 0
51 -61 -71 0
51 -75 -61 -71 0
51 -62 -67 55 0
51 -75 -62 -67 0
51 -62 -68 0
51 -75 -62 -68 0
51 -62 -69 0
51 -75 -62 -69 0
51 -62 -70 0
51 -75 -62 -70 0
51 -62 -71 0
51 -75 -62 -71 0
51 -63 -67 0
51 -75 -63 -67 0
51 -63 -68 0
51 -75 -63 -68 0
51 -63 -69 0
51 -75 -63 -69 0
51 -63 -70 0
51 -75 -63 -70 0
51 -63 -71 0
51 -75 -63 -71 0
51 -85 72 88 0
51 -86 73 88 0
51 -87 74 88 0
51 -79 72 88 0
51 -80 73 88 0
51 -81 74 88 0
51 -79 -85 73 88 0
51 -79 -86 74 88 0
51 -79 -87 88 0
51 -80 -85 74 88 0
51 -80 -86 88 0
51 -80 -87 72 0
51 -81 -85 88 0
51 -81 -86 72 0
51 -81 -87 73 0
51 -88 67 0
51 -82 67 0
51 -88 -82 68 0
51 -83 68 0
51 -88 -83 69 0
51 -84 69 0
51 -88 -84 70 0
51 -76 67 0
51 -88 -76 68 0
51 -77 68 0
51 -88 -77 69 0
51 -78 69 0
51 -88 -78 70 0
51 -76 -82 68 0
51 -88 -76 -82 69 0
51 -76 -83 69 0
51 -88 -76 -83 70 0
51 -76 -84 70 0
51 -88 -76 -84 71 0
51 -77 -82 69 0
51 -88 -77 -82 70 0
51 -77 -83 70 0
51 -88 -77 -83 71 0
51 -77 -84 71 0
51 -88 -77 -84 0
51 -78 -82 70 0
51 -88 -78 -82 71 0
51 -78 -83 71 0
51 -88 -78 -83 0
51 -78 -84 0
51 -88 -78 -84 0
51 -94 85 97 0
51 -95 86 97 0
51 -96 87 97 0
51 -90 85 97 0
51 -91 86 97 0
51 -92 87 97 0
51 -90 -94 86 97 0
51 -90 -95 87 97 0
51 -90 -96 97 0
51 -91 -94 87 97 0
51 -91 -95 97 0
51 -91 -96 85 0
51 -92 -94 97 0
51 -92 -95 85 0
51 -92 -96 86 0
51 -97 82 0
51 -93 82 0
51 -97 -93 83 0
51 -89 82 0
51 -97 -89 83 0
51 -89 -93 83 0
51 -97 -89 -93 84 0
51 -47 98 0
51 -101 98 0
51 -102 99 0
51 -101 -47 99 0
51 -102 -47 100 0
51 -46 101 0
51 -45 101 0
51 -45 -46 102 0
51 -50 103 0
51 -106 103 0
51 -107 104 0
51 -106 -50 104 0
51 -107 -50 105 0
51 -49 106 0
51 -48 106 0
51 -48 -49 107 0
51 -103 94 108 0
51 -104 95 108 0
51 -105 96 108 0
51 -98 94 108 0
51 -99 95 108 0
51 -100 96 108 0
51 -98 -103 95 108 0
51 -98 -104 96 108 0
51 -98 -105 108 0
51 -99 -103 96 108 0
51 -99 -104 108 0
51 -99 -105 94 0
51 -100 -103 108 0
51 -100 -104 94 0
51 -100 -105 95 0
51 -108 93 0
51 -41 109 0
51 -112 109 0
51 -113 110 0
51 -112 -41 110 0
51 -113 -41 111 0
51 -40 112 0
51 -39 112 0
51 -39 -40 113 0
51 -44 114 0
51 -117 114 0
51 -118 115 0
51 -117 -44 115 0
51 -118 -44 116 0
51 -43 117 0
51 -42 117 0
51 -42 -43 118 0
51 -114 90 119 0
51 -115 91 119 0
51 -116 92 119 0
51 -109 90 119 0
51 -110 91 119 0
51 -111 92 119 0
51 -109 -114 91 119 0
51 -109 -115 92 119 0
51 -109 -116 119 0
51 -110 -114 92 119 0
51 -110 -115 119 0
51 -110 -116 90 0
51 -111 -114 119 0
51 -111 -115 90 0
51 -111 -116 91 0
51 -119 89 0
51 -125 79 128 0
51 -126 80 128 0
51 -127 81 128 0
51 -121 79 128 0
51 -122 80 128 0
51 -123 81 128 0
51 -121 -125 80 128 0
51 -121 -126 81 128 0
51 -121 -127 128 0
51 -122 -125 81 128 0
51 -122 -126 128 0
51 -122 -127 79 0
51 -123 -125 128 0
51 -123 -126 79 0
51 -123 -127 80 0
51 -128 76 0
51 -124 76 0
51 -128 -124 77 0
51 -120 76 0
51 -128 -120 77 0
51 -120 -124 77 0
51 -128 -120 -124 78 0
51 -35 129 0
51 -132 129 0
51 -133 130 0
51 -132 -35 130 0
51 -133 -35 131 0
51 -34 132 0
51 -33 132 0
51 -33 -34 133 0
51 -38 134 0
51 -137 134 0
51 -138 135 0
51 -137 -38 135 0
51 -138 -38 136 0
51 -37 137 0
51 -36 137 0
51 -36 -37 138 0
51 -134 125 139 0
51 -135 126 139 0
51 -136 127 139 0
51 -129 125 139 0
51 -130 126 139 0
51 -131 127 139 0
51 -129 -134 126 139 0
51 -129 -135 127 139 0
51 -129 -136 139 0
51 -130 -134 127 139 0
51 -130 -135 139 0
51 -130 -136 125 0
51 -131 -134 139 0
51 -131 -135 125 0
51 -131 -136 126 0
51 -139 124 0
51 -32 144 0
51 -147 144 0
51 -148 145 0
51 -147 -32 145 0
51 -148 -32 146 0
51 -31 147 0
51 -30 147 0
51 -30 -31 148 0
51 -144 121 149 0
51 -145 122 149 0
51 -146 123 149 0
51 -141 121 149 0
51 -142 122 149 0
51 -143 123 149 0
51 -141 -144 122 149 0
51 -141 -145 123 149 0
51 -141 -146 149 0
51 -142 -144 123 149 0
51 -142 -145 149 0
51 -142 -146 121 0
51 -143 -144 149 0
51 -143 -145 121 0
51 -143 -146 122 0
51 -149 120 0
51 -140 120 0
51 -149 -140 0
51 -27 150 0
51 -26 150 0
51 -26 -27 151 0
51 -29 152 0
51 -28 152 0
51 -28 -29 153 0
51 -152 141 154 0
51 -153 142 154 0
51 -150 141 154 0
51 -151 142 154 0
51 -150 -152 142 154 0
51 -150 -153 143 154 0
51 -151 -152 143 154 0
51 -151 -153 154 0
51 -154 140 0
51 -164 64 167 0
51 -165 65 167 0
51 -166 66 167 0
51 -158 64 167 0
51 -159 65 167 0
51 -160 66 167 0
51 -158 -164 65 167 0
51 -158 -165 66 167 0
51 -158 -166 167 0
51 -159 -164 66 167 0
51 -159 -165 167 0
51 -159 -166 64 0
51 -160 -164 167 0
51 -160 -165 64 0
51 -160 -166 65 0
51 -167 59 0
51 -161 59 0
51 -167 -161 60 0
51 -162 60 0
51 -167 -162 61 0
51 -163 61 0
51 -167 -163 62 0
51 -155 59 0
51 -167 -155 60 0
51 -156 60 0
51 -167 -156 61 0
51 -157 61 0
51 -167 -157 62 0
51 -155 -161 60 0
51 -167 -155 -161 61 0
51 -155 -162 61 0
51 -167 -155 -162 62 0
51 -155 -163 62 0
51 -167 -155 -163 63 0
51 -156 -161 61 0
51 -167 -156 -161 62 0
51 -156 -162 62 0
51 -167 -156 -162 63 0
51 -156 -163 63 0
51 -167 -156 -163 0
51 -157 -161 62 0
51 -167 -157 -161 63 0
51 -157 -162 63 0
51 -167 -157 -162 0
51 -157 -163 0
51 -167 -157 -163 0
51 -173 164 176 0
51 -174 165 176 0
51 -175 166 176 0
51 -169 164 176 0
51 -170 165 176 0
51 -171 166 176 0
51 -169 -173 165 176 0
51 -169 -174 166 176 0
51 -169 -175 176 0
51 -170 -173 166 176 0
51 -170 -174 176 0
51 -170 -175 164 0
51 -171 -173 176 0
51 -171 -174 164 0
51 -171 -175 165 0
51 -176 161 0
51 -172 161 0
51 -176 -172 162 0
51 -168 161 0
51 -176 -168 162 0
51 -168 -172 162 0
51 -176 -168 -172 163 0
51 -22 177 0
51 -180 177 0
51 -181 178 0
51 -180 -22 178 0
51 -181 -22 179 0
51 -21 180 0
51 -20 180 0
51 -20 -21 181 0
51 -25 182 0
51 -185 182 0
51 -186 183 0
51 -185 -25 183 0
51 -186 -25 184 0
51 -24 185 0
51 -23 185 0
51 -23 -24 186 0
51 -182 173 187 0
51 -183 174 187 0
51 -184 175 187 0
51 -177 173 187 0
51 -178 174 187 0
51 -179 175 187 0
51 -177 -182 174 187 0
51 -177 -183 175 187 0
51 -177 -184 187 0
51 -178 -182 175 187 0
51 -178 -183 187 0
51 -178 -184 173 0
51 -179 -182 187 0
51 -179 -183 173 0
51 -179 -184 174 0
51 -187 172 0
51 -16 188 0
51 -191 188 0
51 -192 189 0
51 -191 -16 189 0
51 -192 -16 190 0
51 -15 191 0
51 -14 191 0
51 -14 -15 192 0
51 -19 193 0
51 -196 193 0
51 -197 194 0
51 -196 -19 194 0
51 -197 -19 195 0
51 -18 196 0
51 -17 196 0
51 -17 -18 197 0
51 -193 169 198 0
51 -194 170 198 0
51 -195 171 198 0
51 -188 169 198 0
51 -189 170 198 0
51 -190 171 198 0
51 -188 -193 170 198 0
51 -188 -194 171 198 0
51 -188 -195 198 0
51 -189 -193 171 198 0
51 -189 -194 198 0
51 -189 -195 169 0
51 -190 -193 198 0
51 -190 -194 169 0
51 -190 -195 170 0
51 -198 168 0
51 -204 158 207 0
51 -205 159 207 0
51 -206 160 207 0
51 -200 158 207 0
51 -201 159 207 0
51 -202 160 207 0
51 -200 -204 159 207 0
51 -200 -205 160 207 0
51 -200 -206 207 0
51 -201 -204 160 207 0
51 -201 -205 207 0
51 -201 -206 158 0
51 -202 -204 207 0
51 -202 -205 158 0
51 -202 -206 159 0
51 -207 155 0
51 -203 155 0
51 -207 -203 156 0
51 -199 155 0
51 -207 -199 156 0
51 -199 -203 156 0
51 -207 -199 -203 157 0
51 -10 208 0
51 -211 208 0
51 -212 209 0
51 -211 -10 209 0
51 -212 -10 210 0
51 -9 211 0
51 -8 211 0
51 -8 -9 212 0
51 -13 213 0
51 -216 213 0
51 -217 214 0
51 -216 -13 214 0
51 -217 -13 215 0
51 -12 216 0
51 -11 216 0
51 -11 -12 217 0
51 -213 204 218 0
51 -214 205 218 0
51 -215 206 218 0
51 -208 204 218 0
51 -209 205 218 0
51 -210 206 218 0
51 -208 -213 205 218 0
51 -208 -214 206 218 0
51 -208 -215 218 0
51 -209 -213 206 218 0
51 -209 -214 218 0
51 -209 -215 204 0
51 -210 -213 218 0
51 -210 -214 204 0
51 -210 -215 205 0
51 -218 203 0
51 -7 223 0
51 -226 223 0
51 -227 224 0
51 -226 -7 224 0
51 -227 -7 225 0
51 -6 226 0
51 -5 226 0
51 -5 -6 227 0
51 -223 200 228 0
51 -224 201 228 0
51 -225 202 228 0
51 -220 200 228 0
51 -221 201 228 0
51 -222 202 228 0
51 -220 -223 201 228 0
51 -220 -224 202 228 0
51 -220 -225 228 0
51 -221 -223 202 228 0
51 -221 -224 228 0
51 -221 -225 200 0
51 -222 -223 228 0
51 -222 -224 200 0
51 -222 -225 201 0
51 -228 199 0
51 -219 199 0
51 -228 -219 0
51 -2 229 0
51 -1 229 0
51 -1 -2 230 0
51 -4 231 0
51 -3 231 0
51 -3 -4 232 0
51 -231 220 233 0
51 -232 221 233 0
51 -229 220 233 0
51 -230 221 233 0
51 -229 -231 221 233 0
51 -229 -232 222 233 0
51 -230 -231 222 233 0
51 -230 -232 233 0
51 -233 219 0
51 -55 -56 0
51 -55 -57 0
51 -55 -58 0
